c Grid graph 3x25
p edge 75 122
e 1 2
e 1 26
e 2 3
e 2 27
e 3 4
e 3 28
e 4 5
e 4 29
e 5 6
e 5 30
e 6 7
e 6 31
e 7 8
e 7 32
e 8 9
e 8 33
e 9 10
e 9 34
e 10 11
e 10 35
e 11 12
e 11 36
e 12 13
e 12 37
e 13 14
e 13 38
e 14 15
e 14 39
e 15 16
e 15 40
e 16 17
e 16 41
e 17 18
e 17 42
e 18 19
e 18 43
e 19 20
e 19 44
e 20 21
e 20 45
e 21 22
e 21 46
e 22 23
e 22 47
e 23 24
e 23 48
e 24 25
e 24 49
e 25 50
e 26 27
e 26 51
e 27 28
e 27 52
e 28 29
e 28 53
e 29 30
e 29 54
e 30 31
e 30 55
e 31 32
e 31 56
e 32 33
e 32 57
e 33 34
e 33 58
e 34 35
e 34 59
e 35 36
e 35 60
e 36 37
e 36 61
e 37 38
e 37 62
e 38 39
e 38 63
e 39 40
e 39 64
e 40 41
e 40 65
e 41 42
e 41 66
e 42 43
e 42 67
e 43 44
e 43 68
e 44 45
e 44 69
e 45 46
e 45 70
e 46 47
e 46 71
e 47 48
e 47 72
e 48 49
e 48 73
e 49 50
e 49 74
e 50 75
e 51 52
e 52 53
e 53 54
e 54 55
e 55 56
e 56 57
e 57 58
e 58 59
e 59 60
e 60 61
e 61 62
e 62 63
e 63 64
e 64 65
e 65 66
e 66 67
e 67 68
e 68 69
e 69 70
e 70 71
e 71 72
e 72 73
e 73 74
e 74 75
